c turning on binary mode checking
c parsing input formula with 259840 variables and 1039929 clauses
c finished parsing, read 3121575 bytes from proof file
c detected empty clause; start verification via backward checking
c 3221 of 1039929 clauses in core                            
c 971 of 127791 lemmas in core using 28515 resolution steps
c 0 RAT lemmas in core; 121 redundant literals in core lemmas
s VERIFIED
c verification time: 1.257 seconds
